p wcnf 8 16
w -2 0.367879 0
w 2 2.718282 0
w -3 0.367879 0
w 3 2.718282 0
w -5 0.367879 0
w 5 2.718282 0
w -7 0.367879 0
w 7 2.718282 0
2 1 4 0
2 -1 -4 0
-2 1 -4 0
-2 -1 4 0
3 1 6 0
3 -1 -6 0
-3 1 -6 0
-3 -1 6 0
5 4 8 0
5 -4 -8 0
-5 4 -8 0
-5 -4 8 0
7 6 8 0
7 -6 -8 0
-7 6 -8 0
-7 -6 8 0
